(set-logic QF_S)
(declare-fun var0 () String)
(declare-fun var1 () Int)
(declare-fun var2 () String)
(declare-fun var3 () String)
(declare-fun var4 () Int)
(declare-fun var5 () String)
(declare-fun var6 () Int)
(declare-fun var7 () Int)
(assert (str.contains (str.at (str.at var0 var1) (str.to.int var2)) (str.substr (str.substr var3 var4 54) (str.len var5) (str.to.int var3))))
(assert (str.suffixof (str.at var0 var6) (str.replace var2 "|VUzW(e" "Boy4Bd1+q")))
(assert (str.prefixof (str.substr (str.at var0 var7) (str.indexof var2 var0 var6) (str.len "3#@")) (str.substr var0 var7 var7)))
(assert (str.in.re var5 re.allchar))
(check-sat)